NAME : kroA100-C-3-0-a.24049.tour
COMMENT : Length = 24049
COMMENT : Found by LKH-3 [Keld Helsgaun] Tue Jul 30 13:14:11 2024
TYPE : TOUR
DIMENSION : 100
TOUR_SECTION
1
8
97
26
56
80
31
89
42
67
64
40
54
2
44
50
82
95
13
76
33
37
5
96
78
52
48
100
41
71
14
3
43
46
29
30
39
85
68
73
69
81
25
61
58
51
87
57
9
7
34
83
55
12
20
27
86
35
62
60
77
23
98
45
91
32
11
15
17
59
74
21
72
10
84
36
99
38
24
18
79
53
88
16
94
22
70
66
65
4
19
75
92
6
49
90
63
47
93
28
-1
EOF
